p cnf 7230 16
-2456 -3130 -3133 0
-3131 3133 0
-1802 -2502 -3128 0
1802 -3129 0
3134 3135 0
2460 -3135 0
-2460 -3134 0
3130 3131 0
3128 3129 0
2456 -3131 0
2502 -3129 0
3132 3133 0
2458 -3133 0
-2458 -3132 0
2500 -3137 0
2462 -3137 0
